* ENCODING=ISO-8859-1
NAME          CPLEX
ROWS
 N  obj1    
 G  c1      
 G  c2      
 G  c3      
 G  c4      
 G  c5      
 G  c6      
 G  c7      
 G  c8      
 G  c9      
 G  c10     
 G  c11     
 G  c12     
 G  c13     
 G  c14     
 G  c15     
 G  c16     
 G  c17     
 G  c18     
 G  c19     
 G  c20     
 G  c21     
 G  c22     
 G  c23     
 G  c24     
 G  c25     
COLUMNS
    MARK0000  'MARKER'                 'INTORG'
    x1        obj1                            1
    x1        c6                            200
    x1        c21                           882
    x2        obj1                            1
    x2        c17                           391
    x3        obj1                            1
    x3        c18                           700
    x3        c22                           100
    x4        obj1                            1
    x5        obj1                            1
    x5        c4                            480
    x5        c7                            205
    x6        obj1                            1
    x6        c11                           903
    x6        c25                           237
    x7        obj1                            1
    x7        c6                            312
    x7        c9                            271
    x7        c11                           610
    x7        c12                           400
    x7        c15                           290
    x7        c20                           181
    x7        c24                           971
    x8        obj1                            1
    x8        c4                            604
    x8        c5                            662
    x8        c10                           857
    x8        c14                           372
    x8        c15                           212
    x8        c19                           477
    x8        c21                           571
    x9        obj1                            1
    x9        c1                            581
    x9        c7                            490
    x9        c8                            608
    x9        c24                           975
    x10       obj1                            1
    x11       obj1                            1
    x11       c1                            444
    x11       c7                            312
    x11       c13                           820
    x11       c14                           445
    x12       obj1                            1
    x12       c13                           345
    x13       obj1                            1
    x13       c4                            411
    x13       c7                            472
    x13       c16                           377
    x13       c22                           235
    x14       obj1                            1
    x14       c13                           414
    x15       obj1                            1
    x15       c2                            821
    x15       c6                            371
    x15       c12                           572
    x15       c22                           435
    x16       obj1                            1
    x16       c10                           682
    x17       obj1                            1
    x17       c5                            129
    x17       c17                           810
    x18       obj1                            1
    x18       c18                           426
    x19       obj1                            1
    x19       c7                            298
    x19       c8                            559
    x19       c9                            755
    x19       c12                           387
    x19       c15                           748
    x19       c18                           810
    x20       obj1                            1
    x20       c9                            364
    x21       obj1                            1
    x21       c11                           448
    x21       c16                           992
    x21       c17                           301
    x22       obj1                            1
    x22       c10                           973
    x23       obj1                            1
    x23       c5                            170
    x23       c12                           252
    x23       c14                           175
    x23       c22                           821
    x24       obj1                            1
    x24       c2                            323
    x24       c16                           941
    x24       c18                           196
    x25       obj1                            1
    x26       obj1                            1
    x27       obj1                            1
    x27       c17                           712
    x27       c22                           314
    x28       obj1                            1
    x28       c16                           861
    x28       c19                           955
    x29       obj1                            1
    x29       c8                            124
    x29       c22                           856
    x30       obj1                            1
    x30       c5                            949
    x30       c24                           771
    x31       obj1                            1
    x31       c21                           334
    x32       obj1                            1
    x32       c10                           717
    x32       c12                           277
    x32       c14                           424
    x32       c17                           493
    x32       c20                           654
    x33       obj1                            1
    x33       c4                            888
    x33       c8                            512
    x33       c13                           211
    x33       c15                           554
    x33       c24                           481
    x34       obj1                            1
    x34       c19                           662
    x34       c21                           932
    x35       obj1                            1
    x35       c20                           707
    x36       obj1                            1
    x36       c2                            387
    x36       c4                            838
    x37       obj1                            1
    x37       c3                            968
    x37       c20                           802
    x38       obj1                            1
    x38       c3                            608
    x38       c8                            975
    x38       c9                            852
    x38       c12                           259
    x39       obj1                            1
    x39       c1                            510
    x39       c7                            268
    x39       c14                           293
    x40       obj1                            1
    x41       obj1                            1
    x42       obj1                            1
    x42       c5                            525
    x42       c14                           830
    x42       c18                           107
    x42       c23                           354
    x43       obj1                            1
    x43       c6                            207
    x43       c17                           615
    x43       c25                           870
    x44       obj1                            1
    x44       c2                            795
    x44       c4                            992
    x44       c12                           113
    x44       c13                           919
    x44       c22                           159
    x44       c24                           494
    x45       obj1                            1
    x45       c13                           809
    x45       c23                           178
    x45       c24                           110
    x46       obj1                            1
    x46       c3                            738
    x47       obj1                            1
    x47       c6                            387
    x47       c10                           132
    x47       c23                           600
    x47       c24                           292
    x48       obj1                            1
    x48       c7                            149
    x48       c9                            280
    x48       c13                           698
    x48       c18                           363
    x48       c25                           105
    x49       obj1                            1
    x49       c2                            317
    x49       c6                            256
    x49       c17                           132
    x50       obj1                            1
    x50       c2                            200
    MARK0001  'MARKER'                 'INTEND'
RHS
    rhs       c1                            768
    rhs       c2                           1422
    rhs       c3                           1157
    rhs       c4                           2107
    rhs       c5                           1218
    rhs       c6                            867
    rhs       c7                           1097
    rhs       c8                           1389
    rhs       c9                           1261
    rhs       c10                          1681
    rhs       c11                           981
    rhs       c12                          1130
    rhs       c13                          2108
    rhs       c14                          1270
    rhs       c15                           902
    rhs       c16                          1586
    rhs       c17                          1727
    rhs       c18                          1301
    rhs       c19                          1047
    rhs       c20                          1172
    rhs       c21                          1360
    rhs       c22                          1460
    rhs       c23                           566
    rhs       c24                          2047
    rhs       c25                           606
BOUNDS
 LI bnd       x1        0
 LI bnd       x2        0
 LI bnd       x3        0
 LI bnd       x4        0
 LI bnd       x5        0
 LI bnd       x6        0
 LI bnd       x7        0
 LI bnd       x8        0
 LI bnd       x9        0
 LI bnd       x10       0
 LI bnd       x11       0
 LI bnd       x12       0
 LI bnd       x13       0
 LI bnd       x14       0
 LI bnd       x15       0
 LI bnd       x16       0
 LI bnd       x17       0
 LI bnd       x18       0
 LI bnd       x19       0
 LI bnd       x20       0
 LI bnd       x21       0
 LI bnd       x22       0
 LI bnd       x23       0
 LI bnd       x24       0
 LI bnd       x25       0
 LI bnd       x26       0
 LI bnd       x27       0
 LI bnd       x28       0
 LI bnd       x29       0
 LI bnd       x30       0
 LI bnd       x31       0
 LI bnd       x32       0
 LI bnd       x33       0
 LI bnd       x34       0
 LI bnd       x35       0
 LI bnd       x36       0
 LI bnd       x37       0
 LI bnd       x38       0
 LI bnd       x39       0
 LI bnd       x40       0
 LI bnd       x41       0
 LI bnd       x42       0
 LI bnd       x43       0
 LI bnd       x44       0
 LI bnd       x45       0
 LI bnd       x46       0
 LI bnd       x47       0
 LI bnd       x48       0
 LI bnd       x49       0
 LI bnd       x50       0
ENDATA
